JulietBench/Juliet_Based_Patch_Bench/FFmpeg/CWE-189-Numeric-Errors/CVE_2013_0875_1ac0fa50eff30d413206cffa5f47f7fe6d4849b1/Resultff_add_png_paeth_prediction_Snippet_patch1EQ.smt2
; benchmark generated from python API
(set-info :status unknown)
(declare-fun R () (_ BitVec 32))
(declare-fun rdi () (_ BitVec 64))
(declare-fun rsi () (_ BitVec 64))
(assert
 (let (($x2543 (= (_ bv0 32) R)))
 (let ((?x6 ((_ extract 31 0) rdi)))
 (let ((?x8 ((_ extract 31 0) rsi)))
 (let ((?x343 (bvsub ?x8 ?x6)))
 (let (($x1242 (bvsgt (_ bv0 32) ?x343)))
 (let (($x3314 (and $x1242 $x2543)))
 (let (($x1227 (bvsle (_ bv0 32) ?x343)))
 (let (($x1631 (bvsgt ?x6 ?x343)))
 (let (($x3304 (and $x1631 $x1227 $x2543)))
 (let (($x2546 (= R ?x6)))
 (let (($x1260 (bvsle ?x6 ?x343)))
 (let ((?x40 (bvmul (_ bv2 32) ?x6)))
 (let (($x2597 (bvsgt ?x40 ?x343)))
 (let (($x3317 (and $x2597 $x1260 $x1227 $x2546)))
 (let ((?x757 (bvmul (_ bv3 32) ?x6)))
 (let (($x2541 (= R ?x757)))
 (let (($x2418 (bvsle ?x40 ?x343)))
 (let (($x3298 (bvsgt ?x757 ?x343)))
 (let (($x3311 (and $x3298 $x2418 $x1260 $x1227 $x2541)))
 (let (($x3306 (or $x3311 $x3317 $x3304 $x3314)))
 (let (($x41 (bvsgt (_ bv0 32) ?x8)))
 (let (($x3296 (and $x41 $x2543)))
 (let (($x12 (bvsle (_ bv0 32) ?x8)))
 (let (($x345 (bvsgt ?x6 ?x8)))
 (let (($x2542 (and $x345 $x12 $x2543)))
 (let (($x45 (bvsle ?x6 ?x8)))
 (let (($x750 (bvsgt ?x40 ?x8)))
 (let (($x2545 (and $x750 $x45 $x12 $x2546)))
 (let (($x348 (bvsle ?x40 ?x8)))
 (let (($x1218 (bvsgt ?x757 ?x8)))
 (let (($x2547 (and $x1218 $x348 $x45 $x12 $x2541)))
 (let (($x3295 (or $x2547 $x2545 $x2542 $x3296)))
 (and $x3295 $x3306))))))))))))))))))))))))))))))))))
(check-sat)
